NAME: random-5-17639
TYPE: TSP
COMMENT: size=5 seed=17639
DIMENSION: 12
EDGE_WEIGHT_TYPE: EUC_2D
NODE_COORD_SECTION
+0 673 71
-0 673 71
+1 411 94
-1 253 864
+2 443 962
-2 852 268
+3 309 815
-3 572 496
+4 767 486
-4 99 255
+5 109 880
-5 15 406
PRECEDENCE_SECTION
+0 -0
+1 -1
+2 -2
+3 -3
+4 -4
+5 -5
EOF
